
Gurobi 9.1.2 (win64, Java) logging started Thu Nov 11 18:19:59 2021

Academic license - for non-commercial use only - expires 2022-10-30
Gurobi Optimizer version 9.1.2 build v9.1.2rc0 (win64)
Thread count: 6 physical cores, 12 logical processors, using up to 12 threads
Optimize a model with 30 rows, 200 columns and 400 nonzeros
Model fingerprint: 0x74108816
Variable types: 0 continuous, 200 integer (200 binary)
Coefficient statistics:
  Matrix range     [1e+00, 9e+02]
  Objective range  [1e+02, 1e+03]
  Bounds range     [1e+00, 1e+00]
  RHS range        [1e+00, 8e+02]
Found heuristic solution: objective 7227.0000000
Presolve removed 3 rows and 97 columns
Presolve time: 0.00s
Presolved: 27 rows, 103 columns, 206 nonzeros
Variable types: 0 continuous, 103 integer (103 binary)
Presolved: 27 rows, 103 columns, 206 nonzeros


Root relaxation: objective 9.028689e+03, 47 iterations, 0.00 seconds

    Nodes    |    Current Node    |     Objective Bounds      |     Work
 Expl Unexpl |  Obj  Depth IntInf | Incumbent    BestBd   Gap | It/Node Time

     0     0 9028.68887    0   12 7227.00000 9028.68887  24.9%     -    0s
H    0     0                    8257.0000000 9028.68887  9.35%     -    0s
H    0     0                    8727.0000000 9028.68887  3.46%     -    0s
     0     0 8968.77502    0   21 8727.00000 8968.77502  2.77%     -    0s
     0     0 8955.28723    0   17 8727.00000 8955.28723  2.62%     -    0s
     0     0 8955.28723    0   21 8727.00000 8955.28723  2.62%     -    0s
     0     0 8745.08552    0   24 8727.00000 8745.08552  0.21%     -    0s
     0     0 8744.79595    0   22 8727.00000 8744.79595  0.20%     -    0s
     0     0 8741.58708    0   22 8727.00000 8741.58708  0.17%     -    0s
     0     0 8741.58708    0   16 8727.00000 8741.58708  0.17%     -    0s
     0     0 8741.58708    0   16 8727.00000 8741.58708  0.17%     -    0s
     0     0 8727.00000    0   24 8727.00000 8727.00000  0.00%     -    0s

Cutting planes:
  Gomory: 3
  Cover: 10
  Clique: 1
  MIR: 8
  StrongCG: 1
  GUB cover: 1
  RLT: 1

Explored 1 nodes (217 simplex iterations) in 0.04 seconds
Thread count was 12 (of 12 available processors)

Solution count 3: 8727 8257 7227 

Optimal solution found (tolerance 1.00e-12)
Best objective 8.727000000000e+03, best bound 8.727000000000e+03, gap 0.0000%
